# Solution for model iteration_459_copy
# Objective value = 3.2076511651628277e+02
0 0
1 0.001
3 0.001
5 0.001
6 1.001
7 0.001
8 1.001
9 0.001
10 1.001
11 1.0019999999999998e+00
13 1.0019999999999998e+00
15 2.0804391037064690e+01
16 2.1804391037064690e+01
17 2.0804391037064690e+01
18 2.1804391037064690e+01
19 2.1805391037064691e+01
21 2.1519427896433037e+01
22 2.2519427896433037e+01
23 2.2520427896433038e+01
25 2.9305988271064958e+01
27 5.3505463984095542e+01
29 6.3757987563938130e+01
31 74.5292761093623
32 75.5292761093623
33 7.4611654915501390e+01
34 7.5611654915501390e+01
35 7.6042387607582285e+01
36 7.7042387607582285e+01
37 7.7043387607582289e+01
39 75.6126549155014
40 76.6126549155014
41 6.3410173111194055e+01
42 6.4410173111194055e+01
43 75.6126549155014
44 76.6126549155014
45 76.6136549155014
47 9.8081824839635217e+01
48 9.9081824839635217e+01
49 9.9082824839635222e+01
51 1.0163994214825098e+02
53 9.9580311231069047e+01
55 1.1988621587669992e+02
56 1.2088621587669992e+02
57 1.2088721587669993e+02
59 1.3094493041931597e+02
61 76.6136549155014
62 77.6136549155014
63 1.1929770231469520e+02
65 1.4169060691376461e+02
66 1.4269060691376461e+02
67 1.4169060691376461e+02
68 1.4269060691376461e+02
69 1.4269160691376462e+02
71 1.3890097938413845e+02
72 1.3990097938413845e+02
73 1.3907421055060695e+02
74 1.4007421055060695e+02
75 1.4007521055060695e+02
77 1.3990197938413846e+02
78 1.4090197938413846e+02
79 1.4007521055060695e+02
80 1.4107521055060695e+02
81 1.6024991869038095e+02
83 1.4090297938413846e+02
85 1.8972097265955594e+02
86 1.9072097265955594e+02
87 1.8955490696144591e+02
88 1.9055490696144591e+02
89 1.9072197265955595e+02
91 1.9123151933358224e+02
92 1.9223151933358224e+02
93 1.9223251933358225e+02
95 1.8322042257128194e+02
96 1.8422042257128194e+02
97 1.8422142257128195e+02
99 2.1303591037064695e+02
101 2.0322290667791532e+02
103 2.3546367233382233e+02
104 2.3646367233382233e+02
105 2.3646467233382234e+02
107 2.4770756209908808e+02
108 2.4870756209908808e+02
109 2.2222439078454869e+02
110 2.2322439078454869e+02
111 2.3104767387808545e+02
113 2.4870856209908808e+02
115 2.2322539078454869e+02
117 2.6576966060488729e+02
118 2.6676966060488729e+02
119 2.6677066060488727e+02
121 2.5185106491515015e+02
122 2.5285106491515015e+02
123 2.5285206491515015e+02
125 2.9624171457406226e+02
127 2.6714595010169086e+02
128 2.6814595010169086e+02
129 2.6714595010169086e+02
130 2.6814595010169086e+02
131 2.6814695010169083e+02
133 2.6814695010169083e+02
134 2.6914695010169083e+02
135 2.6914795010169081e+02
137 2.9861900407086580e+02
138 2.9961900407086580e+02
139 2.9861900407086580e+02
140 2.9961900407086580e+02
141 2.9962000407086578e+02
143 366.589777975788
144 367.589777975788
145 366.589777975788
146 367.589777975788
147 367.590777975788
149 3.3621610277662791e+02
150 3.3721610277662791e+02
151 3.3721710277662788e+02
153 4.0226242970422913e+02
154 4.0326242970422913e+02
155 4.0326342970422911e+02
157 3.7982490832629350e+02
159 4.3793508143267024e+02
161 3.5562619473561665e+02
162 3.5662619473561665e+02
163 410.751194180247
165 3.5662719473561663e+02
166 3.5762719473561663e+02
167 3.5762819473561660e+02
169 5.2807977592661723e+02
170 5.2907977592661723e+02
171 5.2908077592661721e+02
173 5.4988416696368188e+02
175 4.8888613693979676e+02
176 4.8988613693979676e+02
177 4.8988713693979673e+02
179 4.4777288922956359e+02
180 4.4877288922956359e+02
181 4.4877388922956357e+02
183 4.6957728026662824e+02
185 5.4400128886608070e+02
187 610.977738060087
188 611.977738060087
189 6.1197873806008693e+02
191 6.7844594522428270e+02
192 6.7944594522428270e+02
193 6.7944694522428267e+02
195 7.1037323107823613e+02
197 3.4442338390426141e+02
198 3.4542338390426141e+02
199 7.7761541467206143e+02
200 7.7861541467206143e+02
201 7.7861641467206141e+02
203 7.9818117843769744e+02
204 7.9918117843769744e+02
205 7.9815757282913785e+02
206 7.9915757282913785e+02
207 7.9918217843769742e+02
209 7.9918217843769742e+02
210 8.0018217843769742e+02
211 7.9915857282913782e+02
212 8.0015857282913782e+02
213 8.0018317843769739e+02
215 8.3709705336656555e+02
216 8.3809705336656555e+02
217 9.3977611651628274e+02
218 9.4077611651628274e+02
219 8.3809805336656552e+02
220 8.3909805336656552e+02
221 8.3909905336656550e+02
223 8.4227307637056151e+02
224 8.4327307637056151e+02
225 8.4327407637056149e+02
227 8.6223802511266376e+02
228 8.6323802511266376e+02
229 8.6323902511266374e+02
230 8.6423902511266374e+02
231 8.6424002511266372e+02
233 8.9516631096661717e+02
234 8.9616631096661717e+02
235 8.9616731096661715e+02
236 8.9716731096661715e+02
237 8.9716831096661713e+02
239 9.3977611651628274e+02
240 9.4077611651628274e+02
241 9.3977611651628274e+02
242 9.4077611651628274e+02
243 9.4077711651628272e+02
c(0,243)_rl 0
c(0,243)_ru 3.2076511651628277e+02
lambda[0] 0
lambda[1] 0
lambda[2] 0
lambda[3] 0
lambda[4] 0
lambda[5] 0
lambda[6] 0
lambda[7] 0
lambda[8] 0
lambda[9] 0
lambda[10] 0
lambda[11] 0
lambda[12] 0
lambda[13] 0
lambda[14] 0
lambda[15] 0
lambda[16] 0
lambda[17] 0
lambda[18] 0
lambda[19] 0
lambda[20] 0
lambda[21] 0
lambda[22] 0
lambda[23] 0
lambda[24] 0
lambda[25] 0
lambda[26] 0
lambda[27] 0
lambda[28] 0
lambda[29] 0
lambda[30] 0
lambda[31] 0
lambda[32] 0
lambda[33] 0
lambda[34] 0
lambda[35] 0
lambda[36] 0
lambda[37] 0
lambda[38] 0
lambda[39] 0
lambda[40] 0
lambda[41] 0
lambda[42] 0
lambda[43] 0
lambda[44] 0
lambda[45] 0
lambda[46] 0
lambda[47] 0
lambda[48] 0
lambda[49] 0
lambda[50] 0
lambda[51] 0
lambda[52] 0
lambda[53] 0
lambda[54] 0
lambda[55] 0
lambda[56] 0
lambda[57] 0
lambda[58] 0
lambda[59] 0
lambda[60] 0
lambda[61] 0
lambda[62] 0
lambda[63] 0
lambda[64] 0
lambda[65] 0
lambda[66] 0
lambda[67] 0
lambda[68] 0
lambda[69] 0
lambda[70] 0
lambda[71] 0
lambda[72] 0
lambda[73] 0
lambda[74] 0
lambda[75] 0
lambda[76] 0
lambda[77] 0
lambda[78] 0
lambda[79] 0
lambda[80] 0
lambda[81] 0
lambda[82] 0
lambda[83] 0
lambda[84] 0
lambda[85] 0
lambda[86] 0
lambda[87] 0
lambda[88] 0
lambda[89] 0
lambda[90] 0
lambda[91] 0
lambda[92] 0
lambda[93] 0
lambda[94] 0
lambda[95] 0
lambda[96] 0
lambda[97] 0
lambda[98] 0
lambda[99] 0
lambda[100] 0
lambda[101] 0
lambda[102] 0
lambda[103] 0
lambda[104] 0
lambda[105] 0
lambda[106] 0
lambda[107] 0
lambda[108] 0
lambda[109] 0
lambda[110] 0
lambda[111] 0
lambda[112] 0
lambda[113] 0
lambda[114] 0
lambda[115] 0
lambda[116] 0
lambda[117] 0
lambda[118] 0
lambda[119] 0
lambda[120] 0
lambda[121] 0
lambda[122] 0
lambda[123] 0
lambda[124] 0
lambda[125] 0
lambda[126] 0
lambda[127] 0
lambda[128] 0
lambda[129] 0
lambda[130] 0
lambda[131] 0
lambda[132] 0
lambda[133] 0
lambda[134] 0
lambda[135] 0
lambda[136] 0
lambda[137] 0
lambda[138] 0
lambda[139] 0
lambda[140] 0
lambda[141] 0
lambda[142] 0
lambda[143] 0
lambda[144] 0
lambda[145] 0
lambda[146] 0
lambda[147] 0
lambda[148] 0
lambda[149] 0
lambda[150] 0
lambda[151] 0
lambda[152] 0
lambda[153] 0
lambda[154] 0
lambda[155] 0
lambda[156] 0
lambda[157] 0
lambda[158] 0
lambda[159] 0
lambda[160] 0
lambda[161] 0
lambda[162] 0
lambda[163] 0
lambda[164] 0
lambda[165] 0
lambda[166] 0
lambda[167] 0
lambda[168] 0
lambda[169] 0
lambda[170] 0
lambda[171] 0
lambda[172] 0
lambda[173] 0
lambda[174] 0
lambda[175] 0
lambda[176] 0
lambda[177] 0
lambda[178] 0
lambda[179] 0
lambda[180] 0
lambda[181] 0
lambda[182] 0
lambda[183] 0
lambda[184] 0
lambda[185] 0
lambda[186] 0
lambda[187] 0
lambda[188] 0
lambda[189] 0
lambda[190] 0
lambda[191] 0
lambda[192] 0
lambda[193] 0
lambda[194] 0
lambda[195] 0
lambda[196] 0
lambda[197] 0
lambda[198] 0
lambda[199] 0
lambda[200] 0
lambda[201] 0
lambda[202] 0
lambda[203] 0
lambda[204] 0
lambda[205] 0
lambda[206] 0
lambda[207] 0
lambda[208] 0
lambda[209] 0
lambda[210] 0
lambda[211] 0
lambda[212] 0
lambda[213] 0
lambda[214] 0
lambda[215] 0
lambda[216] 0
lambda[217] 0
lambda[218] 0
lambda[219] 0
lambda[220] 0
lambda[221] 0
lambda[222] 0
lambda[223] 0
lambda[224] 0
lambda[225] 0
lambda[226] 0
lambda[227] 0
lambda[228] 0
lambda[229] 0
lambda[230] 0
lambda[231] 0
lambda[232] 0
lambda[233] 0
lambda[234] 0
lambda[235] 0
lambda[236] 0
lambda[237] 0
lambda[238] 0
lambda[239] 0
lambda[240] 0
lambda[241] 0
lambda[242] 0
lambda[243] 0
lambda[244] 0
lambda[245] 0
lambda[246] 0
lambda[247] 0
lambda[248] 0
lambda[249] 0
lambda[250] 0
lambda[251] 0
lambda[252] 0
lambda[253] 0
lambda[254] 0
lambda[255] 0
lambda[256] 0
lambda[257] 0
lambda[258] 0
lambda[259] 0
lambda[260] 0
lambda[261] 0
lambda[262] 0
lambda[263] 0
lambda[264] 0
lambda[265] 0
lambda[266] 0
lambda[267] 0
lambda[268] 0
lambda[269] 0
lambda[270] 0
lambda[271] 0
lambda[272] 0
lambda[273] 0
lambda[274] 0
lambda[275] 0
lambda[276] 0
lambda[277] 0
lambda[278] 0
lambda[279] 0
lambda[280] 0
lambda[281] 0
lambda[282] 0
lambda[283] 0
lambda[284] 0
lambda[285] 0
lambda[286] 0
lambda[287] 0
lambda[288] 0
lambda[289] 0
lambda[290] 0
lambda[291] 0
lambda[292] 0
lambda[293] 0
lambda[294] 0
lambda[295] 0
lambda[296] 0
lambda[297] 0
lambda[298] 0
lambda[299] 0
lambda[300] 0
lambda[301] 0
lambda[302] 0
lambda[303] 0
lambda[304] 0
lambda[305] 0
lambda[306] 0
lambda[307] 0
lambda[308] 0
lambda[309] 0
lambda[310] 0
lambda[311] 0
lambda[312] 0
lambda[313] 0
lambda[314] 0
lambda[315] 0
lambda[316] 0
lambda[317] 0
lambda[318] 0
lambda[319] 0
lambda[320] 0
lambda[321] 0
lambda[322] 0
lambda[323] 0
lambda[324] 0
lambda[325] 0
lambda[326] 0
lambda[327] 0
lambda[328] 0
lambda[329] 0
lambda[330] 0
lambda[331] 0
lambda[332] 0
lambda[333] 0
lambda[334] 0
lambda[335] 0
lambda[336] 0
lambda[337] 0
lambda[338] 0
lambda[339] 0
lambda[340] 0
lambda[341] 0
lambda[342] 0
lambda[343] 0
lambda[344] 0
lambda[345] 0
lambda[346] 0
lambda[347] 0
lambda[348] 0
lambda[349] 0
lambda[350] 0
lambda[351] 0
lambda[352] 0
lambda[353] 0
lambda[354] 0
lambda[355] 0
lambda[356] 0
lambda[357] 0
lambda[358] 0
lambda[359] 0
lambda[360] 0
lambda[361] 0
lambda[362] 0
lambda[363] 0
lambda[364] 0
lambda[365] 0
lambda[366] 0
lambda[367] 0
lambda[368] 0
lambda[369] 0
lambda[370] 0
lambda[371] 0
lambda[372] 0
lambda[373] 0
lambda[374] 0
lambda[375] 0
lambda[376] 0
lambda[377] 0
lambda[378] 0
lambda[379] 0
lambda[380] 0
lambda[381] 0
lambda[382] 0
lambda[383] 0
lambda[384] 0
lambda[385] 0
lambda[386] 0
lambda[387] 0
lambda[388] 0
lambda[389] 0
lambda[390] 0
lambda[391] 0
lambda[392] 0
lambda[393] 0
lambda[394] 0
lambda[395] 0
lambda[396] 0
lambda[397] 0
lambda[398] 0
lambda[399] 0
lambda[400] 0
lambda[401] 0
lambda[402] 0
lambda[403] 0
lambda[404] 0
lambda[405] 0
lambda[406] 0
lambda[407] 0
lambda[408] 0
lambda[409] 0
lambda[410] 0
lambda[411] 0
lambda[412] 0
lambda[413] 0
lambda[414] 0
lambda[415] 0
lambda[416] 0
lambda[417] 0
lambda[418] 0
lambda[419] 0
lambda[420] 0
lambda[421] 0
lambda[422] 0
lambda[423] 0
lambda[424] 0
lambda[425] 0
lambda[426] 0
lambda[427] 0
lambda[428] 0
lambda[429] 0
lambda[430] 0
lambda[431] 0
lambda[432] 0
lambda[433] 0
lambda[434] 0
lambda[435] 0
lambda[436] 0
lambda[437] 0
lambda[438] 0
lambda[439] 0
lambda[440] 0
lambda[441] 0
lambda[442] 0
lambda[443] 0
lambda[444] 0
lambda[445] 0
lambda[446] 0
lambda[447] 0
lambda[448] 0
lambda[449] 0
lambda[450] 0
lambda[451] 0
lambda[452] 0
lambda[453] 2.2174554677504094e-01
lambda[454] 0
lambda[455] 2.3681657943110629e-01
lambda[456] 3.3246435595025858e-01
lambda[457] 1.3884166975972975e-01
lambda[458] 7.0131848083864454e-02
phi[0] 2.2314355131420971e-01
